Minimize
  alpha_phi_n130_flop + cst_0_phi_120_flop + cst_1_phi_224_flop + start_0_forkC_510_flop + cst_8_fork_1115_flop + forkC_5_cst_02_flop + forkC_5_cst_14_flop + forkC_5_cst_88_flop + forkC_5_phiC_234_flop + fork_11_phi_n1336_flop + fork_11_phi_n14132_flop + branch_7_sink_4215_flop + branchC_8_sink_5216_flop + load_8_MC_col206_flop + load_11_LSQ_A199_flop + load_15_MC_row209_flop + load_18_LSQ_A200_flop + store_0_LSQ_A201_flop + store_0_LSQ_A202_flop + forkC_0_LSQ_A198_flop + branch_1_sink_1212_flop + branch_3_sink_2213_flop + branch_6_sink_3214_flop + branchC_9_sink_6217_flop + branch_2_ret_0196_flop + ret_0_end_0221_flop + LSQ_A_load_1173_flop + LSQ_A_load_1884_flop + LSQ_A_end_0218_flop + MC_col_load_869_flop + MC_col_end_0219_flop + MC_row_load_1580_flop + MC_row_end_0220_flop
Subject to
  timePath_alpha_out1 <= 4
  timePath_phi_n1_in3 <= 4
  8 alpha_phi_n130_flop - timePath_alpha_out1 + timePath_phi_n1_in3 >= 0
  timePath_cst_0_out1 <= 4
  timePath_phi_1_in3 <= 4
  8 cst_0_phi_120_flop - timePath_cst_0_out1 + timePath_phi_1_in3 >= 0
  timePath_cst_1_out1 <= 4
  timePath_phi_2_in3 <= 4
  8 cst_1_phi_224_flop - timePath_cst_1_out1 + timePath_phi_2_in3 >= 0
  timePath_start_0_out1 <= 4
  timePath_forkC_5_in1 <= 4
  8 start_0_forkC_510_flop - timePath_start_0_out1 + timePath_forkC_5_in1 >= 0
  timePath_cst_8_out1 <= 4
  timePath_fork_11_in1 <= 4
  8 cst_8_fork_1115_flop - timePath_cst_8_out1 + timePath_fork_11_in1 >= 0
  timePath_forkC_5_out1 <= 4
  timePath_cst_0_in1 <= 4
  8 forkC_5_cst_02_flop + timePath_cst_0_in1 - timePath_forkC_5_out1 >= 0
  timePath_forkC_5_out2 <= 4
  timePath_cst_1_in1 <= 4
  8 forkC_5_cst_14_flop + timePath_cst_1_in1 - timePath_forkC_5_out2 >= 0
  timePath_forkC_5_out4 <= 4
  timePath_cst_8_in1 <= 4
  8 forkC_5_cst_88_flop + timePath_cst_8_in1 - timePath_forkC_5_out4 >= 0
  timePath_forkC_5_out3 <= 4
  timePath_phiC_2_in3 <= 4
  8 forkC_5_phiC_234_flop - timePath_forkC_5_out3 + timePath_phiC_2_in3 >= 0
  timePath_fork_11_out1 <= 4
  timePath_phi_n13_in1 <= 4
  8 fork_11_phi_n1336_flop - timePath_fork_11_out1 + timePath_phi_n13_in1 >= 0
  timePath_fork_11_out2 <= 4
  timePath_phi_n14_in1 <= 4
  8 fork_11_phi_n14132_flop - timePath_fork_11_out2 + timePath_phi_n14_in1 >= 0
  timePath_phi_1_out1 <= 4
  timePath_phi_5_in3 <= 4
  -timePath_phi_1_out1 + timePath_phi_5_in3 >= -8
  timePath_phi_2_out1 <= 4
  timePath_add_24_in1 <= 4
  -timePath_phi_2_out1 + timePath_add_24_in1 >= -8
  timePath_cst_2_out1 <= 4
  timePath_phi_4_in3 <= 4
  -timePath_cst_2_out1 + timePath_phi_4_in3 >= -0
  timePath_phi_n1_out1 <= 4
  timePath_fork_7_in1 <= 4
  -timePath_phi_n1_out1 + timePath_fork_7_in1 >= -8
  timePath_phiC_2_out1 <= 4
  timePath_forkC_8_in1 <= 4
  -timePath_phiC_2_out1 + timePath_forkC_8_in1 >= -8
  timePath_phi_n13_out1 <= 4
  timePath_fork_10_in1 <= 4
  -timePath_phi_n13_out1 + timePath_fork_10_in1 >= -0
  timePath_branch_7_out2 <= 4
  timePath_phi_n1_in2 <= 4
  timePath_phi_n1_in2 - timePath_branch_7_out2 >= -0
  timePath_branch_7_out1 <= 4
  timePath_sink_4_in1 <= 4
  8 branch_7_sink_4215_flop - timePath_branch_7_out1 + timePath_sink_4_in1 >= 0
  timePath_branchC_8_out2 <= 4
  timePath_phiC_2_in2 <= 4
  timePath_phiC_2_in2 - timePath_branchC_8_out2 >= -0
  timePath_branchC_8_out1 <= 4
  timePath_sink_5_in1 <= 4
  8 branchC_8_sink_5216_flop - timePath_branchC_8_out1 + timePath_sink_5_in1 >= 0
  timePath_fork_7_out2 <= 4
  timePath_branch_7_in1 <= 4
  timePath_branch_7_in1 - timePath_fork_7_out2 >= -0
  timePath_fork_7_out1 <= 4
  timePath_phi_n0_in3 <= 4
  -timePath_fork_7_out1 + timePath_phi_n0_in3 >= -0
  timePath_forkC_8_out1 <= 4
  timePath_cst_2_in1 <= 4
  timePath_cst_2_in1 - timePath_forkC_8_out1 >= -0
  timePath_forkC_8_out2 <= 4
  timePath_branchC_8_in1 <= 4
  timePath_branchC_8_in1 - timePath_forkC_8_out2 >= -0
  timePath_forkC_8_out3 <= 4
  timePath_phiC_3_in3 <= 4
  -timePath_forkC_8_out3 + timePath_phiC_3_in3 >= -0
  timePath_forkC_8_out4 <= 4
  timePath_cst_6_in1 <= 4
  -timePath_forkC_8_out4 + timePath_cst_6_in1 >= -0
  timePath_forkC_8_out5 <= 4
  timePath_cst_7_in1 <= 4
  -timePath_forkC_8_out5 + timePath_cst_7_in1 >= -0
  timePath_fork_10_out1 <= 4
  timePath_phi_1_in1 <= 4
  timePath_phi_1_in1 - timePath_fork_10_out1 >= -0
  timePath_fork_10_out2 <= 4
  timePath_phi_2_in1 <= 4
  timePath_phi_2_in1 - timePath_fork_10_out2 >= -0
  timePath_fork_10_out3 <= 4
  timePath_phi_n1_in1 <= 4
  timePath_phi_n1_in1 - timePath_fork_10_out3 >= -0
  timePath_fork_10_out4 <= 4
  timePath_phiC_2_in1 <= 4
  timePath_phiC_2_in1 - timePath_fork_10_out4 >= -0
  timePath_phi_4_out1 <= 4
  timePath_add_21_in1 <= 4
  -timePath_phi_4_out1 + timePath_add_21_in1 >= -8
  timePath_phi_5_out1 <= 4
  timePath_fork_0_in1 <= 4
  -timePath_phi_5_out1 + timePath_fork_0_in1 >= -8
  timePath_load_8_out1 <= 4
  timePath_load_11_in2 <= 4
  -timePath_load_8_out1 + timePath_load_11_in2 >= -0
  timePath_load_11_out1 <= 4
  timePath_mul_12_in1 <= 4
  -timePath_load_11_out1 + timePath_mul_12_in1 >= -0
  timePath_mul_12_out1 <= 4
  timePath_add_19_in2 <= 4
  -timePath_mul_12_out1 + timePath_add_19_in2 >= -0
  timePath_load_15_out1 <= 4
  timePath_fork_13_in1 <= 4
  -timePath_load_15_out1 + timePath_fork_13_in1 >= -0
  timePath_load_18_out1 <= 4
  timePath_add_19_in1 <= 4
  -timePath_load_18_out1 + timePath_add_19_in1 >= -0
  timePath_add_19_out1 <= 4
  timePath_store_0_in1 <= 4
  -timePath_add_19_out1 + timePath_store_0_in1 >= -0
  timePath_cst_3_out1 <= 4
  timePath_add_20_in2 <= 4
  -timePath_cst_3_out1 + timePath_add_20_in2 >= -0
  timePath_add_20_out1 <= 4
  timePath_branch_0_in1 <= 4
  -timePath_add_20_out1 + timePath_branch_0_in1 >= -0
  timePath_cst_4_out1 <= 4
  timePath_add_21_in2 <= 4
  -timePath_cst_4_out1 + timePath_add_21_in2 >= -0
  timePath_add_21_out1 <= 4
  timePath_fork_1_in1 <= 4
  -timePath_add_21_out1 + timePath_fork_1_in1 >= -0
  timePath_cst_5_out1 <= 4
  timePath_icmp_22_in2 <= 4
  -timePath_cst_5_out1 + timePath_icmp_22_in2 >= -0
  timePath_icmp_22_out1 <= 4
  timePath_fork_2_in1 <= 4
  -timePath_icmp_22_out1 + timePath_fork_2_in1 >= -0
  timePath_phi_n0_out1 <= 4
  timePath_fork_6_in1 <= 4
  -timePath_phi_n0_out1 + timePath_fork_6_in1 >= -8
  timePath_phiC_3_out1 <= 4
  timePath_forkC_9_in1 <= 4
  -timePath_phiC_3_out1 + timePath_forkC_9_in1 >= -8
  timePath_branch_0_out1 <= 4
  timePath_phi_5_in2 <= 4
  timePath_phi_5_in2 - timePath_branch_0_out1 >= -0
  timePath_branch_0_out2 <= 4
  timePath_branch_1_in1 <= 4
  -timePath_branch_0_out2 + timePath_branch_1_in1 >= -0
  timePath_branch_1_out2 <= 4
  timePath_phi_1_in2 <= 4
  timePath_phi_1_in2 - timePath_branch_1_out2 >= -0
  timePath_branch_1_out1 <= 4
  timePath_sink_1_in1 <= 4
  8 branch_1_sink_1212_flop - timePath_branch_1_out1 + timePath_sink_1_in1 >= 0
  timePath_branch_3_out2 <= 4
  timePath_phi_4_in2 <= 4
  timePath_phi_4_in2 - timePath_branch_3_out2 >= -0
  timePath_branch_3_out1 <= 4
  timePath_sink_2_in1 <= 4
  8 branch_3_sink_2213_flop - timePath_branch_3_out1 + timePath_sink_2_in1 >= 0
  timePath_phi_n14_out1 <= 4
  timePath_fork_12_in1 <= 4
  -timePath_phi_n14_out1 + timePath_fork_12_in1 >= -0
  timePath_branch_6_out2 <= 4
  timePath_phi_n0_in2 <= 4
  timePath_phi_n0_in2 - timePath_branch_6_out2 >= -0
  timePath_branch_6_out1 <= 4
  timePath_sink_3_in1 <= 4
  8 branch_6_sink_3214_flop - timePath_branch_6_out1 + timePath_sink_3_in1 >= 0
  timePath_branchC_9_out2 <= 4
  timePath_phiC_3_in2 <= 4
  timePath_phiC_3_in2 - timePath_branchC_9_out2 >= -0
  timePath_branchC_9_out1 <= 4
  timePath_sink_6_in1 <= 4
  8 branchC_9_sink_6217_flop - timePath_branchC_9_out1 + timePath_sink_6_in1 >= 0
  timePath_fork_0_out2 <= 4
  timePath_load_8_in2 <= 4
  timePath_load_8_in2 - timePath_fork_0_out2 >= -0
  timePath_fork_0_out3 <= 4
  timePath_load_15_in2 <= 4
  timePath_load_15_in2 - timePath_fork_0_out3 >= -0
  timePath_fork_0_out1 <= 4
  timePath_add_20_in1 <= 4
  timePath_add_20_in1 - timePath_fork_0_out1 >= -0
  timePath_fork_1_out1 <= 4
  timePath_icmp_22_in1 <= 4
  timePath_icmp_22_in1 - timePath_fork_1_out1 >= -0
  timePath_fork_1_out2 <= 4
  timePath_branch_3_in1 <= 4
  timePath_branch_3_in1 - timePath_fork_1_out2 >= -0
  timePath_fork_2_out1 <= 4
  timePath_branch_0_in2 <= 4
  timePath_branch_0_in2 - timePath_fork_2_out1 >= -0
  timePath_fork_2_out2 <= 4
  timePath_branch_3_in2 <= 4
  timePath_branch_3_in2 - timePath_fork_2_out2 >= -0
  timePath_fork_2_out3 <= 4
  timePath_phi_n14_in2 <= 4
  timePath_phi_n14_in2 - timePath_fork_2_out3 >= -0
  timePath_fork_2_out4 <= 4
  timePath_branch_6_in2 <= 4
  timePath_branch_6_in2 - timePath_fork_2_out4 >= -0
  timePath_fork_2_out5 <= 4
  timePath_branchC_9_in2 <= 4
  timePath_branchC_9_in2 - timePath_fork_2_out5 >= -0
  timePath_fork_6_out1 <= 4
  timePath_mul_12_in2 <= 4
  timePath_mul_12_in2 - timePath_fork_6_out1 >= -0
  timePath_fork_6_out2 <= 4
  timePath_branch_6_in1 <= 4
  timePath_branch_6_in1 - timePath_fork_6_out2 >= -0
  timePath_forkC_9_out1 <= 4
  timePath_cst_3_in1 <= 4
  timePath_cst_3_in1 - timePath_forkC_9_out1 >= -0
  timePath_forkC_9_out3 <= 4
  timePath_cst_4_in1 <= 4
  timePath_cst_4_in1 - timePath_forkC_9_out3 >= -0
  timePath_forkC_9_out4 <= 4
  timePath_cst_5_in1 <= 4
  timePath_cst_5_in1 - timePath_forkC_9_out4 >= -0
  timePath_forkC_9_out5 <= 4
  timePath_forkC_0_in1 <= 4
  timePath_forkC_0_in1 - timePath_forkC_9_out5 >= -0
  timePath_forkC_9_out2 <= 4
  timePath_branchC_9_in1 <= 4
  timePath_branchC_9_in1 - timePath_forkC_9_out2 >= -0
  timePath_fork_12_out1 <= 4
  timePath_phi_4_in1 <= 4
  timePath_phi_4_in1 - timePath_fork_12_out1 >= -0
  timePath_fork_12_out2 <= 4
  timePath_phi_5_in1 <= 4
  timePath_phi_5_in1 - timePath_fork_12_out2 >= -0
  timePath_fork_12_out3 <= 4
  timePath_phi_n0_in1 <= 4
  timePath_phi_n0_in1 - timePath_fork_12_out3 >= -0
  timePath_fork_12_out4 <= 4
  timePath_phiC_3_in1 <= 4
  timePath_phiC_3_in1 - timePath_fork_12_out4 >= -0
  timePath_fork_13_out1 <= 4
  timePath_load_18_in2 <= 4
  timePath_load_18_in2 - timePath_fork_13_out1 >= -0
  timePath_fork_13_out2 <= 4
  timePath_store_0_in2 <= 4
  timePath_store_0_in2 - timePath_fork_13_out2 >= -0
  timePath_cst_6_out1 <= 4
  timePath_add_24_in2 <= 4
  -timePath_cst_6_out1 + timePath_add_24_in2 >= -0
  timePath_add_24_out1 <= 4
  timePath_fork_3_in1 <= 4
  -timePath_add_24_out1 + timePath_fork_3_in1 >= -0
  timePath_cst_7_out1 <= 4
  timePath_icmp_25_in2 <= 4
  -timePath_cst_7_out1 + timePath_icmp_25_in2 >= -0
  timePath_icmp_25_out1 <= 4
  timePath_fork_4_in1 <= 4
  -timePath_icmp_25_out1 + timePath_fork_4_in1 >= -0
  timePath_branch_2_out2 <= 4
  timePath_phi_2_in2 <= 4
  timePath_phi_2_in2 - timePath_branch_2_out2 >= -0
  timePath_branch_2_out1 <= 4
  timePath_ret_0_in1 <= 4
  8 branch_2_ret_0196_flop - timePath_branch_2_out1 + timePath_ret_0_in1 >= 0
  timePath_fork_3_out1 <= 4
  timePath_icmp_25_in1 <= 4
  timePath_icmp_25_in1 - timePath_fork_3_out1 >= -0
  timePath_fork_3_out2 <= 4
  timePath_branch_2_in1 <= 4
  timePath_branch_2_in1 - timePath_fork_3_out2 >= -0
  timePath_fork_4_out2 <= 4
  timePath_phi_n13_in2 <= 4
  timePath_phi_n13_in2 - timePath_fork_4_out2 >= -0
  timePath_fork_4_out4 <= 4
  timePath_branch_7_in2 <= 4
  timePath_branch_7_in2 - timePath_fork_4_out4 >= -0
  timePath_fork_4_out5 <= 4
  timePath_branchC_8_in2 <= 4
  timePath_branchC_8_in2 - timePath_fork_4_out5 >= -0
  timePath_fork_4_out1 <= 4
  timePath_branch_1_in2 <= 4
  timePath_branch_1_in2 - timePath_fork_4_out1 >= -0
  timePath_fork_4_out3 <= 4
  timePath_branch_2_in2 <= 4
  timePath_branch_2_in2 - timePath_fork_4_out3 >= -0
  timePath_ret_0_out1 <= 4
  timePath_end_0_in4 <= 4
  8 ret_0_end_0221_flop - timePath_ret_0_out1 + timePath_end_0_in4 >= 0
  -timePath_cst_0_in1 + timePath_cst_0_out1 >= 0
  -timePath_cst_1_in1 + timePath_cst_1_out1 >= 0
  -timePath_cst_8_in1 + timePath_cst_8_out1 >= 0
  -timePath_forkC_5_in1 + timePath_forkC_5_out1 >= 0
  -timePath_forkC_5_in1 + timePath_forkC_5_out2 >= 0
  -timePath_forkC_5_in1 + timePath_forkC_5_out3 >= 0
  -timePath_forkC_5_in1 + timePath_forkC_5_out4 >= 0
  -timePath_fork_11_in1 + timePath_fork_11_out1 >= 0
  -timePath_fork_11_in1 + timePath_fork_11_out2 >= 0
  -timePath_phi_1_in1 + timePath_phi_1_out1 >= 0.366
  -timePath_phi_1_in2 + timePath_phi_1_out1 >= 0.366
  -timePath_phi_1_in3 + timePath_phi_1_out1 >= 0.366
  -timePath_phi_2_in1 + timePath_phi_2_out1 >= 0.366
  -timePath_phi_2_in2 + timePath_phi_2_out1 >= 0.366
  -timePath_phi_2_in3 + timePath_phi_2_out1 >= 0.366
  -timePath_cst_2_in1 + timePath_cst_2_out1 >= 0
  -timePath_phi_n1_in1 + timePath_phi_n1_out1 >= 0.366
  -timePath_phi_n1_in2 + timePath_phi_n1_out1 >= 0.366
  -timePath_phi_n1_in3 + timePath_phi_n1_out1 >= 0.366
  -timePath_phiC_2_in1 + timePath_phiC_2_out1 >= 0.166
  -timePath_phiC_2_in2 + timePath_phiC_2_out1 >= 0.166
  -timePath_phiC_2_in3 + timePath_phiC_2_out1 >= 0.166
  -timePath_phi_n13_in1 + timePath_phi_n13_out1 >= 0.366
  -timePath_phi_n13_in2 + timePath_phi_n13_out1 >= 0.366
  -timePath_branch_7_in1 + timePath_branch_7_out1 >= 0
  -timePath_branch_7_in2 + timePath_branch_7_out1 >= 0
  -timePath_branch_7_in1 + timePath_branch_7_out2 >= 0
  -timePath_branch_7_in2 + timePath_branch_7_out2 >= 0
  -timePath_branchC_8_in1 + timePath_branchC_8_out1 >= 0
  -timePath_branchC_8_in2 + timePath_branchC_8_out1 >= 0
  -timePath_branchC_8_in1 + timePath_branchC_8_out2 >= 0
  -timePath_branchC_8_in2 + timePath_branchC_8_out2 >= 0
  -timePath_fork_7_in1 + timePath_fork_7_out1 >= 0
  -timePath_fork_7_in1 + timePath_fork_7_out2 >= 0
  -timePath_forkC_8_in1 + timePath_forkC_8_out1 >= 0
  -timePath_forkC_8_in1 + timePath_forkC_8_out2 >= 0
  -timePath_forkC_8_in1 + timePath_forkC_8_out3 >= 0
  -timePath_forkC_8_in1 + timePath_forkC_8_out4 >= 0
  -timePath_forkC_8_in1 + timePath_forkC_8_out5 >= 0
  -timePath_fork_10_in1 + timePath_fork_10_out1 >= 0
  -timePath_fork_10_in1 + timePath_fork_10_out2 >= 0
  -timePath_fork_10_in1 + timePath_fork_10_out3 >= 0
  -timePath_fork_10_in1 + timePath_fork_10_out4 >= 0
  -timePath_phi_4_in1 + timePath_phi_4_out1 >= 0.366
  -timePath_phi_4_in2 + timePath_phi_4_out1 >= 0.366
  -timePath_phi_4_in3 + timePath_phi_4_out1 >= 0.366
  -timePath_phi_5_in1 + timePath_phi_5_out1 >= 0.366
  -timePath_phi_5_in2 + timePath_phi_5_out1 >= 0.366
  -timePath_phi_5_in3 + timePath_phi_5_out1 >= 0.366
  timePath_load_8_out1 = 0
  timePath_load_8_out2 = 0
  timePath_load_8_in1 <= 4
  timePath_load_8_in2 <= 4
  timePath_load_11_out1 = 0
  timePath_load_11_out2 = 0
  timePath_load_11_in1 <= 4
  timePath_load_11_in2 <= 4
  timePath_mul_12_out1 = 0
  timePath_mul_12_in1 <= 4
  timePath_mul_12_in2 <= 4
  timePath_load_15_out1 = 0
  timePath_load_15_out2 = 0
  timePath_load_15_in1 <= 4
  timePath_load_15_in2 <= 4
  timePath_load_18_out1 = 0
  timePath_load_18_out2 = 0
  timePath_load_18_in1 <= 4
  timePath_load_18_in2 <= 4
  -timePath_add_19_in1 + timePath_add_19_out1 >= 1.693
  -timePath_add_19_in2 + timePath_add_19_out1 >= 1.693
  -timePath_store_0_in1 + timePath_store_0_out1 >= 0
  -timePath_store_0_in2 + timePath_store_0_out1 >= 0
  -timePath_store_0_in1 + timePath_store_0_out2 >= 0
  -timePath_store_0_in2 + timePath_store_0_out2 >= 0
  -timePath_cst_3_in1 + timePath_cst_3_out1 >= 0
  -timePath_add_20_in1 + timePath_add_20_out1 >= 1.693
  -timePath_add_20_in2 + timePath_add_20_out1 >= 1.693
  -timePath_cst_4_in1 + timePath_cst_4_out1 >= 0
  -timePath_add_21_in1 + timePath_add_21_out1 >= 1.693
  -timePath_add_21_in2 + timePath_add_21_out1 >= 1.693
  -timePath_cst_5_in1 + timePath_cst_5_out1 >= 0
  -timePath_icmp_22_in1 + timePath_icmp_22_out1 >= 1.53
  -timePath_icmp_22_in2 + timePath_icmp_22_out1 >= 1.53
  -timePath_forkC_0_in1 + timePath_forkC_0_out1 >= 0
  -timePath_phi_n0_in1 + timePath_phi_n0_out1 >= 0.366
  -timePath_phi_n0_in2 + timePath_phi_n0_out1 >= 0.366
  -timePath_phi_n0_in3 + timePath_phi_n0_out1 >= 0.366
  -timePath_phiC_3_in1 + timePath_phiC_3_out1 >= 0.166
  -timePath_phiC_3_in2 + timePath_phiC_3_out1 >= 0.166
  -timePath_phiC_3_in3 + timePath_phiC_3_out1 >= 0.166
  -timePath_branch_0_in1 + timePath_branch_0_out1 >= 0
  -timePath_branch_0_in2 + timePath_branch_0_out1 >= 0
  -timePath_branch_0_in1 + timePath_branch_0_out2 >= 0
  -timePath_branch_0_in2 + timePath_branch_0_out2 >= 0
  -timePath_branch_1_in1 + timePath_branch_1_out1 >= 0
  -timePath_branch_1_in2 + timePath_branch_1_out1 >= 0
  -timePath_branch_1_in1 + timePath_branch_1_out2 >= 0
  -timePath_branch_1_in2 + timePath_branch_1_out2 >= 0
  -timePath_branch_3_in1 + timePath_branch_3_out1 >= 0
  -timePath_branch_3_in2 + timePath_branch_3_out1 >= 0
  -timePath_branch_3_in1 + timePath_branch_3_out2 >= 0
  -timePath_branch_3_in2 + timePath_branch_3_out2 >= 0
  -timePath_phi_n14_in1 + timePath_phi_n14_out1 >= 0.366
  -timePath_phi_n14_in2 + timePath_phi_n14_out1 >= 0.366
  -timePath_branch_6_in1 + timePath_branch_6_out1 >= 0
  -timePath_branch_6_in2 + timePath_branch_6_out1 >= 0
  -timePath_branch_6_in1 + timePath_branch_6_out2 >= 0
  -timePath_branch_6_in2 + timePath_branch_6_out2 >= 0
  -timePath_branchC_9_in1 + timePath_branchC_9_out1 >= 0
  -timePath_branchC_9_in2 + timePath_branchC_9_out1 >= 0
  -timePath_branchC_9_in1 + timePath_branchC_9_out2 >= 0
  -timePath_branchC_9_in2 + timePath_branchC_9_out2 >= 0
  -timePath_fork_0_in1 + timePath_fork_0_out1 >= 0
  -timePath_fork_0_in1 + timePath_fork_0_out2 >= 0
  -timePath_fork_0_in1 + timePath_fork_0_out3 >= 0
  -timePath_fork_1_in1 + timePath_fork_1_out1 >= 0
  -timePath_fork_1_in1 + timePath_fork_1_out2 >= 0
  -timePath_fork_2_in1 + timePath_fork_2_out1 >= 0
  -timePath_fork_2_in1 + timePath_fork_2_out2 >= 0
  -timePath_fork_2_in1 + timePath_fork_2_out3 >= 0
  -timePath_fork_2_in1 + timePath_fork_2_out4 >= 0
  -timePath_fork_2_in1 + timePath_fork_2_out5 >= 0
  -timePath_fork_6_in1 + timePath_fork_6_out1 >= 0
  -timePath_fork_6_in1 + timePath_fork_6_out2 >= 0
  -timePath_forkC_9_in1 + timePath_forkC_9_out1 >= 0
  -timePath_forkC_9_in1 + timePath_forkC_9_out2 >= 0
  -timePath_forkC_9_in1 + timePath_forkC_9_out3 >= 0
  -timePath_forkC_9_in1 + timePath_forkC_9_out4 >= 0
  -timePath_forkC_9_in1 + timePath_forkC_9_out5 >= 0
  -timePath_fork_12_in1 + timePath_fork_12_out1 >= 0
  -timePath_fork_12_in1 + timePath_fork_12_out2 >= 0
  -timePath_fork_12_in1 + timePath_fork_12_out3 >= 0
  -timePath_fork_12_in1 + timePath_fork_12_out4 >= 0
  -timePath_fork_13_in1 + timePath_fork_13_out1 >= 0
  -timePath_fork_13_in1 + timePath_fork_13_out2 >= 0
  -timePath_cst_6_in1 + timePath_cst_6_out1 >= 0
  -timePath_add_24_in1 + timePath_add_24_out1 >= 1.693
  -timePath_add_24_in2 + timePath_add_24_out1 >= 1.693
  -timePath_cst_7_in1 + timePath_cst_7_out1 >= 0
  -timePath_icmp_25_in1 + timePath_icmp_25_out1 >= 1.53
  -timePath_icmp_25_in2 + timePath_icmp_25_out1 >= 1.53
  -timePath_branch_2_in1 + timePath_branch_2_out1 >= 0
  -timePath_branch_2_in2 + timePath_branch_2_out1 >= 0
  -timePath_branch_2_in1 + timePath_branch_2_out2 >= 0
  -timePath_branch_2_in2 + timePath_branch_2_out2 >= 0
  -timePath_fork_3_in1 + timePath_fork_3_out1 >= 0
  -timePath_fork_3_in1 + timePath_fork_3_out2 >= 0
  -timePath_fork_4_in1 + timePath_fork_4_out1 >= 0
  -timePath_fork_4_in1 + timePath_fork_4_out2 >= 0
  -timePath_fork_4_in1 + timePath_fork_4_out3 >= 0
  -timePath_fork_4_in1 + timePath_fork_4_out4 >= 0
  -timePath_fork_4_in1 + timePath_fork_4_out5 >= 0
  -timePath_ret_0_in1 + timePath_ret_0_out1 >= 0
  -timePath_LSQ_A_in1 + timePath_LSQ_A_out1 >= 0
  -timePath_LSQ_A_in2 + timePath_LSQ_A_out1 >= 0
  -timePath_LSQ_A_in3 + timePath_LSQ_A_out1 >= 0
  -timePath_LSQ_A_in4 + timePath_LSQ_A_out1 >= 0
  -timePath_LSQ_A_in5 + timePath_LSQ_A_out1 >= 0
  -timePath_LSQ_A_in1 + timePath_LSQ_A_out2 >= 0
  -timePath_LSQ_A_in2 + timePath_LSQ_A_out2 >= 0
  -timePath_LSQ_A_in3 + timePath_LSQ_A_out2 >= 0
  -timePath_LSQ_A_in4 + timePath_LSQ_A_out2 >= 0
  -timePath_LSQ_A_in5 + timePath_LSQ_A_out2 >= 0
  -timePath_LSQ_A_in1 + timePath_LSQ_A_out3 >= 0
  -timePath_LSQ_A_in2 + timePath_LSQ_A_out3 >= 0
  -timePath_LSQ_A_in3 + timePath_LSQ_A_out3 >= 0
  -timePath_LSQ_A_in4 + timePath_LSQ_A_out3 >= 0
  -timePath_LSQ_A_in5 + timePath_LSQ_A_out3 >= 0
  -timePath_MC_col_in1 + timePath_MC_col_out1 >= 0
  -timePath_MC_col_in1 + timePath_MC_col_out2 >= 0
  -timePath_MC_row_in1 + timePath_MC_row_out1 >= 0
  -timePath_MC_row_in1 + timePath_MC_row_out2 >= 0
  68 alpha_phi_n130_flop - timeElastic_alpha_out1 + timeElastic_phi_n1_in3 >= 0
  68 cst_0_phi_120_flop - timeElastic_cst_0_out1 + timeElastic_phi_1_in3 >= 0
  68 cst_1_phi_224_flop - timeElastic_cst_1_out1 + timeElastic_phi_2_in3 >= 0
  68 start_0_forkC_510_flop - timeElastic_start_0_out1 + timeElastic_forkC_5_in1 >= 0
  68 cst_8_fork_1115_flop - timeElastic_cst_8_out1 + timeElastic_fork_11_in1 >= 0
  68 forkC_5_cst_02_flop + timeElastic_cst_0_in1 - timeElastic_forkC_5_out1 >= 0
  68 forkC_5_cst_14_flop + timeElastic_cst_1_in1 - timeElastic_forkC_5_out2 >= 0
  68 forkC_5_cst_88_flop + timeElastic_cst_8_in1 - timeElastic_forkC_5_out4 >= 0
  68 forkC_5_phiC_234_flop - timeElastic_forkC_5_out3 + timeElastic_phiC_2_in3 >= 0
  68 fork_11_phi_n1336_flop - timeElastic_fork_11_out1 + timeElastic_phi_n13_in1 >= 0
  68 fork_11_phi_n14132_flop - timeElastic_fork_11_out2 + timeElastic_phi_n14_in1 >= 0
  -timeElastic_phi_1_out1 + timeElastic_phi_5_in3 >= -68
  -timeElastic_phi_2_out1 + timeElastic_add_24_in1 >= -68
  -timeElastic_cst_2_out1 + timeElastic_phi_4_in3 >= -0
  -timeElastic_phi_n1_out1 + timeElastic_fork_7_in1 >= -68
  -timeElastic_phiC_2_out1 + timeElastic_forkC_8_in1 >= -68
  -timeElastic_phi_n13_out1 + timeElastic_fork_10_in1 >= -0
  timeElastic_phi_n1_in2 - timeElastic_branch_7_out2 >= -0
  68 branch_7_sink_4215_flop - timeElastic_branch_7_out1 + timeElastic_sink_4_in1 >= 0
  timeElastic_phiC_2_in2 - timeElastic_branchC_8_out2 >= -0
  68 branchC_8_sink_5216_flop - timeElastic_branchC_8_out1 + timeElastic_sink_5_in1 >= 0
  timeElastic_branch_7_in1 - timeElastic_fork_7_out2 >= -0
  -timeElastic_fork_7_out1 + timeElastic_phi_n0_in3 >= -0
  timeElastic_cst_2_in1 - timeElastic_forkC_8_out1 >= -0
  timeElastic_branchC_8_in1 - timeElastic_forkC_8_out2 >= -0
  -timeElastic_forkC_8_out3 + timeElastic_phiC_3_in3 >= -0
  -timeElastic_forkC_8_out4 + timeElastic_cst_6_in1 >= -0
  -timeElastic_forkC_8_out5 + timeElastic_cst_7_in1 >= -0
  timeElastic_phi_1_in1 - timeElastic_fork_10_out1 >= -0
  timeElastic_phi_2_in1 - timeElastic_fork_10_out2 >= -0
  timeElastic_phi_n1_in1 - timeElastic_fork_10_out3 >= -0
  timeElastic_phiC_2_in1 - timeElastic_fork_10_out4 >= -0
  -timeElastic_phi_4_out1 + timeElastic_add_21_in1 >= -68
  -timeElastic_phi_5_out1 + timeElastic_fork_0_in1 >= -68
  -timeElastic_load_8_out1 + timeElastic_load_11_in2 >= -0
  -timeElastic_load_11_out1 + timeElastic_mul_12_in1 >= -0
  -timeElastic_mul_12_out1 + timeElastic_add_19_in2 >= -0
  -timeElastic_load_15_out1 + timeElastic_fork_13_in1 >= -0
  -timeElastic_load_18_out1 + timeElastic_add_19_in1 >= -0
  -timeElastic_add_19_out1 + timeElastic_store_0_in1 >= -0
  -timeElastic_cst_3_out1 + timeElastic_add_20_in2 >= -0
  -timeElastic_add_20_out1 + timeElastic_branch_0_in1 >= -0
  -timeElastic_cst_4_out1 + timeElastic_add_21_in2 >= -0
  -timeElastic_add_21_out1 + timeElastic_fork_1_in1 >= -0
  -timeElastic_cst_5_out1 + timeElastic_icmp_22_in2 >= -0
  -timeElastic_icmp_22_out1 + timeElastic_fork_2_in1 >= -0
  -timeElastic_phi_n0_out1 + timeElastic_fork_6_in1 >= -68
  -timeElastic_phiC_3_out1 + timeElastic_forkC_9_in1 >= -68
  timeElastic_phi_5_in2 - timeElastic_branch_0_out1 >= -0
  -timeElastic_branch_0_out2 + timeElastic_branch_1_in1 >= -0
  timeElastic_phi_1_in2 - timeElastic_branch_1_out2 >= -0
  68 branch_1_sink_1212_flop - timeElastic_branch_1_out1 + timeElastic_sink_1_in1 >= 0
  timeElastic_phi_4_in2 - timeElastic_branch_3_out2 >= -0
  68 branch_3_sink_2213_flop - timeElastic_branch_3_out1 + timeElastic_sink_2_in1 >= 0
  -timeElastic_phi_n14_out1 + timeElastic_fork_12_in1 >= -0
  timeElastic_phi_n0_in2 - timeElastic_branch_6_out2 >= -0
  68 branch_6_sink_3214_flop - timeElastic_branch_6_out1 + timeElastic_sink_3_in1 >= 0
  timeElastic_phiC_3_in2 - timeElastic_branchC_9_out2 >= -0
  68 branchC_9_sink_6217_flop - timeElastic_branchC_9_out1 + timeElastic_sink_6_in1 >= 0
  timeElastic_load_8_in2 - timeElastic_fork_0_out2 >= -0
  timeElastic_load_15_in2 - timeElastic_fork_0_out3 >= -0
  timeElastic_add_20_in1 - timeElastic_fork_0_out1 >= -0
  timeElastic_icmp_22_in1 - timeElastic_fork_1_out1 >= -0
  timeElastic_branch_3_in1 - timeElastic_fork_1_out2 >= -0
  timeElastic_branch_0_in2 - timeElastic_fork_2_out1 >= -0
  timeElastic_branch_3_in2 - timeElastic_fork_2_out2 >= -0
  timeElastic_phi_n14_in2 - timeElastic_fork_2_out3 >= -0
  timeElastic_branch_6_in2 - timeElastic_fork_2_out4 >= -0
  timeElastic_branchC_9_in2 - timeElastic_fork_2_out5 >= -0
  timeElastic_mul_12_in2 - timeElastic_fork_6_out1 >= -0
  timeElastic_branch_6_in1 - timeElastic_fork_6_out2 >= -0
  timeElastic_cst_3_in1 - timeElastic_forkC_9_out1 >= -0
  timeElastic_cst_4_in1 - timeElastic_forkC_9_out3 >= -0
  timeElastic_cst_5_in1 - timeElastic_forkC_9_out4 >= -0
  timeElastic_forkC_0_in1 - timeElastic_forkC_9_out5 >= -0
  timeElastic_branchC_9_in1 - timeElastic_forkC_9_out2 >= -0
  timeElastic_phi_4_in1 - timeElastic_fork_12_out1 >= -0
  timeElastic_phi_5_in1 - timeElastic_fork_12_out2 >= -0
  timeElastic_phi_n0_in1 - timeElastic_fork_12_out3 >= -0
  timeElastic_phiC_3_in1 - timeElastic_fork_12_out4 >= -0
  timeElastic_load_18_in2 - timeElastic_fork_13_out1 >= -0
  timeElastic_store_0_in2 - timeElastic_fork_13_out2 >= -0
  -timeElastic_cst_6_out1 + timeElastic_add_24_in2 >= -0
  -timeElastic_add_24_out1 + timeElastic_fork_3_in1 >= -0
  -timeElastic_cst_7_out1 + timeElastic_icmp_25_in2 >= -0
  -timeElastic_icmp_25_out1 + timeElastic_fork_4_in1 >= -0
  timeElastic_phi_2_in2 - timeElastic_branch_2_out2 >= -0
  68 branch_2_ret_0196_flop - timeElastic_branch_2_out1 + timeElastic_ret_0_in1 >= 0
  timeElastic_icmp_25_in1 - timeElastic_fork_3_out1 >= -0
  timeElastic_branch_2_in1 - timeElastic_fork_3_out2 >= -0
  timeElastic_phi_n13_in2 - timeElastic_fork_4_out2 >= -0
  timeElastic_branch_7_in2 - timeElastic_fork_4_out4 >= -0
  timeElastic_branchC_8_in2 - timeElastic_fork_4_out5 >= -0
  timeElastic_branch_1_in2 - timeElastic_fork_4_out1 >= -0
  timeElastic_branch_2_in2 - timeElastic_fork_4_out3 >= -0
  68 ret_0_end_0221_flop - timeElastic_ret_0_out1 + timeElastic_end_0_in4 >= 0
  -timeElastic_cst_0_in1 + timeElastic_cst_0_out1 >= 1
  -timeElastic_cst_1_in1 + timeElastic_cst_1_out1 >= 1
  -timeElastic_cst_8_in1 + timeElastic_cst_8_out1 >= 1
  -timeElastic_forkC_5_in1 + timeElastic_forkC_5_out1 >= 1
  -timeElastic_forkC_5_in1 + timeElastic_forkC_5_out2 >= 1
  -timeElastic_forkC_5_in1 + timeElastic_forkC_5_out3 >= 1
  -timeElastic_forkC_5_in1 + timeElastic_forkC_5_out4 >= 1
  -timeElastic_fork_11_in1 + timeElastic_fork_11_out1 >= 1
  -timeElastic_fork_11_in1 + timeElastic_fork_11_out2 >= 1
  -timeElastic_phi_1_in1 + timeElastic_phi_1_out1 >= 1
  -timeElastic_phi_1_in2 + timeElastic_phi_1_out1 >= 1
  -timeElastic_phi_1_in3 + timeElastic_phi_1_out1 >= 1
  -timeElastic_phi_2_in1 + timeElastic_phi_2_out1 >= 1
  -timeElastic_phi_2_in2 + timeElastic_phi_2_out1 >= 1
  -timeElastic_phi_2_in3 + timeElastic_phi_2_out1 >= 1
  -timeElastic_cst_2_in1 + timeElastic_cst_2_out1 >= 1
  -timeElastic_phi_n1_in1 + timeElastic_phi_n1_out1 >= 1
  -timeElastic_phi_n1_in2 + timeElastic_phi_n1_out1 >= 1
  -timeElastic_phi_n1_in3 + timeElastic_phi_n1_out1 >= 1
  -timeElastic_phiC_2_in1 + timeElastic_phiC_2_out1 >= 1
  -timeElastic_phiC_2_in2 + timeElastic_phiC_2_out1 >= 1
  -timeElastic_phiC_2_in3 + timeElastic_phiC_2_out1 >= 1
  -timeElastic_phi_n13_in1 + timeElastic_phi_n13_out1 >= 1
  -timeElastic_phi_n13_in2 + timeElastic_phi_n13_out1 >= 1
  -timeElastic_branch_7_in1 + timeElastic_branch_7_out1 >= 1
  -timeElastic_branch_7_in2 + timeElastic_branch_7_out1 >= 1
  -timeElastic_branch_7_in1 + timeElastic_branch_7_out2 >= 1
  -timeElastic_branch_7_in2 + timeElastic_branch_7_out2 >= 1
  -timeElastic_branchC_8_in1 + timeElastic_branchC_8_out1 >= 1
  -timeElastic_branchC_8_in2 + timeElastic_branchC_8_out1 >= 1
  -timeElastic_branchC_8_in1 + timeElastic_branchC_8_out2 >= 1
  -timeElastic_branchC_8_in2 + timeElastic_branchC_8_out2 >= 1
  -timeElastic_fork_7_in1 + timeElastic_fork_7_out1 >= 1
  -timeElastic_fork_7_in1 + timeElastic_fork_7_out2 >= 1
  -timeElastic_forkC_8_in1 + timeElastic_forkC_8_out1 >= 1
  -timeElastic_forkC_8_in1 + timeElastic_forkC_8_out2 >= 1
  -timeElastic_forkC_8_in1 + timeElastic_forkC_8_out3 >= 1
  -timeElastic_forkC_8_in1 + timeElastic_forkC_8_out4 >= 1
  -timeElastic_forkC_8_in1 + timeElastic_forkC_8_out5 >= 1
  -timeElastic_fork_10_in1 + timeElastic_fork_10_out1 >= 1
  -timeElastic_fork_10_in1 + timeElastic_fork_10_out2 >= 1
  -timeElastic_fork_10_in1 + timeElastic_fork_10_out3 >= 1
  -timeElastic_fork_10_in1 + timeElastic_fork_10_out4 >= 1
  -timeElastic_phi_4_in1 + timeElastic_phi_4_out1 >= 1
  -timeElastic_phi_4_in2 + timeElastic_phi_4_out1 >= 1
  -timeElastic_phi_4_in3 + timeElastic_phi_4_out1 >= 1
  -timeElastic_phi_5_in1 + timeElastic_phi_5_out1 >= 1
  -timeElastic_phi_5_in2 + timeElastic_phi_5_out1 >= 1
  -timeElastic_phi_5_in3 + timeElastic_phi_5_out1 >= 1
  -timeElastic_load_8_in1 + timeElastic_load_8_out1 >= 1
  -timeElastic_load_8_in2 + timeElastic_load_8_out1 >= 1
  -timeElastic_load_8_in1 + timeElastic_load_8_out2 >= 1
  -timeElastic_load_8_in2 + timeElastic_load_8_out2 >= 1
  -timeElastic_load_11_in1 + timeElastic_load_11_out1 >= 1
  -timeElastic_load_11_in2 + timeElastic_load_11_out1 >= 1
  -timeElastic_load_11_in1 + timeElastic_load_11_out2 >= 1
  -timeElastic_load_11_in2 + timeElastic_load_11_out2 >= 1
  -timeElastic_mul_12_in1 + timeElastic_mul_12_out1 >= 1
  -timeElastic_mul_12_in2 + timeElastic_mul_12_out1 >= 1
  -timeElastic_load_15_in1 + timeElastic_load_15_out1 >= 1
  -timeElastic_load_15_in2 + timeElastic_load_15_out1 >= 1
  -timeElastic_load_15_in1 + timeElastic_load_15_out2 >= 1
  -timeElastic_load_15_in2 + timeElastic_load_15_out2 >= 1
  -timeElastic_load_18_in1 + timeElastic_load_18_out1 >= 1
  -timeElastic_load_18_in2 + timeElastic_load_18_out1 >= 1
  -timeElastic_load_18_in1 + timeElastic_load_18_out2 >= 1
  -timeElastic_load_18_in2 + timeElastic_load_18_out2 >= 1
  -timeElastic_add_19_in1 + timeElastic_add_19_out1 >= 1
  -timeElastic_add_19_in2 + timeElastic_add_19_out1 >= 1
  -timeElastic_store_0_in1 + timeElastic_store_0_out1 >= 1
  -timeElastic_store_0_in2 + timeElastic_store_0_out1 >= 1
  -timeElastic_store_0_in1 + timeElastic_store_0_out2 >= 1
  -timeElastic_store_0_in2 + timeElastic_store_0_out2 >= 1
  -timeElastic_cst_3_in1 + timeElastic_cst_3_out1 >= 1
  -timeElastic_add_20_in1 + timeElastic_add_20_out1 >= 1
  -timeElastic_add_20_in2 + timeElastic_add_20_out1 >= 1
  -timeElastic_cst_4_in1 + timeElastic_cst_4_out1 >= 1
  -timeElastic_add_21_in1 + timeElastic_add_21_out1 >= 1
  -timeElastic_add_21_in2 + timeElastic_add_21_out1 >= 1
  -timeElastic_cst_5_in1 + timeElastic_cst_5_out1 >= 1
  -timeElastic_icmp_22_in1 + timeElastic_icmp_22_out1 >= 1
  -timeElastic_icmp_22_in2 + timeElastic_icmp_22_out1 >= 1
  -timeElastic_forkC_0_in1 + timeElastic_forkC_0_out1 >= 1
  -timeElastic_phi_n0_in1 + timeElastic_phi_n0_out1 >= 1
  -timeElastic_phi_n0_in2 + timeElastic_phi_n0_out1 >= 1
  -timeElastic_phi_n0_in3 + timeElastic_phi_n0_out1 >= 1
  -timeElastic_phiC_3_in1 + timeElastic_phiC_3_out1 >= 1
  -timeElastic_phiC_3_in2 + timeElastic_phiC_3_out1 >= 1
  -timeElastic_phiC_3_in3 + timeElastic_phiC_3_out1 >= 1
  -timeElastic_branch_0_in1 + timeElastic_branch_0_out1 >= 1
  -timeElastic_branch_0_in2 + timeElastic_branch_0_out1 >= 1
  -timeElastic_branch_0_in1 + timeElastic_branch_0_out2 >= 1
  -timeElastic_branch_0_in2 + timeElastic_branch_0_out2 >= 1
  -timeElastic_branch_1_in1 + timeElastic_branch_1_out1 >= 1
  -timeElastic_branch_1_in2 + timeElastic_branch_1_out1 >= 1
  -timeElastic_branch_1_in1 + timeElastic_branch_1_out2 >= 1
  -timeElastic_branch_1_in2 + timeElastic_branch_1_out2 >= 1
  -timeElastic_branch_3_in1 + timeElastic_branch_3_out1 >= 1
  -timeElastic_branch_3_in2 + timeElastic_branch_3_out1 >= 1
  -timeElastic_branch_3_in1 + timeElastic_branch_3_out2 >= 1
  -timeElastic_branch_3_in2 + timeElastic_branch_3_out2 >= 1
  -timeElastic_phi_n14_in1 + timeElastic_phi_n14_out1 >= 1
  -timeElastic_phi_n14_in2 + timeElastic_phi_n14_out1 >= 1
  -timeElastic_branch_6_in1 + timeElastic_branch_6_out1 >= 1
  -timeElastic_branch_6_in2 + timeElastic_branch_6_out1 >= 1
  -timeElastic_branch_6_in1 + timeElastic_branch_6_out2 >= 1
  -timeElastic_branch_6_in2 + timeElastic_branch_6_out2 >= 1
  -timeElastic_branchC_9_in1 + timeElastic_branchC_9_out1 >= 1
  -timeElastic_branchC_9_in2 + timeElastic_branchC_9_out1 >= 1
  -timeElastic_branchC_9_in1 + timeElastic_branchC_9_out2 >= 1
  -timeElastic_branchC_9_in2 + timeElastic_branchC_9_out2 >= 1
  -timeElastic_fork_0_in1 + timeElastic_fork_0_out1 >= 1
  -timeElastic_fork_0_in1 + timeElastic_fork_0_out2 >= 1
  -timeElastic_fork_0_in1 + timeElastic_fork_0_out3 >= 1
  -timeElastic_fork_1_in1 + timeElastic_fork_1_out1 >= 1
  -timeElastic_fork_1_in1 + timeElastic_fork_1_out2 >= 1
  -timeElastic_fork_2_in1 + timeElastic_fork_2_out1 >= 1
  -timeElastic_fork_2_in1 + timeElastic_fork_2_out2 >= 1
  -timeElastic_fork_2_in1 + timeElastic_fork_2_out3 >= 1
  -timeElastic_fork_2_in1 + timeElastic_fork_2_out4 >= 1
  -timeElastic_fork_2_in1 + timeElastic_fork_2_out5 >= 1
  -timeElastic_fork_6_in1 + timeElastic_fork_6_out1 >= 1
  -timeElastic_fork_6_in1 + timeElastic_fork_6_out2 >= 1
  -timeElastic_forkC_9_in1 + timeElastic_forkC_9_out1 >= 1
  -timeElastic_forkC_9_in1 + timeElastic_forkC_9_out2 >= 1
  -timeElastic_forkC_9_in1 + timeElastic_forkC_9_out3 >= 1
  -timeElastic_forkC_9_in1 + timeElastic_forkC_9_out4 >= 1
  -timeElastic_forkC_9_in1 + timeElastic_forkC_9_out5 >= 1
  -timeElastic_fork_12_in1 + timeElastic_fork_12_out1 >= 1
  -timeElastic_fork_12_in1 + timeElastic_fork_12_out2 >= 1
  -timeElastic_fork_12_in1 + timeElastic_fork_12_out3 >= 1
  -timeElastic_fork_12_in1 + timeElastic_fork_12_out4 >= 1
  -timeElastic_fork_13_in1 + timeElastic_fork_13_out1 >= 1
  -timeElastic_fork_13_in1 + timeElastic_fork_13_out2 >= 1
  -timeElastic_cst_6_in1 + timeElastic_cst_6_out1 >= 1
  -timeElastic_add_24_in1 + timeElastic_add_24_out1 >= 1
  -timeElastic_add_24_in2 + timeElastic_add_24_out1 >= 1
  -timeElastic_cst_7_in1 + timeElastic_cst_7_out1 >= 1
  -timeElastic_icmp_25_in1 + timeElastic_icmp_25_out1 >= 1
  -timeElastic_icmp_25_in2 + timeElastic_icmp_25_out1 >= 1
  -timeElastic_branch_2_in1 + timeElastic_branch_2_out1 >= 1
  -timeElastic_branch_2_in2 + timeElastic_branch_2_out1 >= 1
  -timeElastic_branch_2_in1 + timeElastic_branch_2_out2 >= 1
  -timeElastic_branch_2_in2 + timeElastic_branch_2_out2 >= 1
  -timeElastic_fork_3_in1 + timeElastic_fork_3_out1 >= 1
  -timeElastic_fork_3_in1 + timeElastic_fork_3_out2 >= 1
  -timeElastic_fork_4_in1 + timeElastic_fork_4_out1 >= 1
  -timeElastic_fork_4_in1 + timeElastic_fork_4_out2 >= 1
  -timeElastic_fork_4_in1 + timeElastic_fork_4_out3 >= 1
  -timeElastic_fork_4_in1 + timeElastic_fork_4_out4 >= 1
  -timeElastic_fork_4_in1 + timeElastic_fork_4_out5 >= 1
  -timeElastic_ret_0_in1 + timeElastic_ret_0_out1 >= 1
  -timeElastic_LSQ_A_in1 + timeElastic_LSQ_A_out1 >= 1
  -timeElastic_LSQ_A_in2 + timeElastic_LSQ_A_out1 >= 1
  -timeElastic_LSQ_A_in3 + timeElastic_LSQ_A_out1 >= 1
  -timeElastic_LSQ_A_in4 + timeElastic_LSQ_A_out1 >= 1
  -timeElastic_LSQ_A_in5 + timeElastic_LSQ_A_out1 >= 1
  -timeElastic_LSQ_A_in1 + timeElastic_LSQ_A_out2 >= 1
  -timeElastic_LSQ_A_in2 + timeElastic_LSQ_A_out2 >= 1
  -timeElastic_LSQ_A_in3 + timeElastic_LSQ_A_out2 >= 1
  -timeElastic_LSQ_A_in4 + timeElastic_LSQ_A_out2 >= 1
  -timeElastic_LSQ_A_in5 + timeElastic_LSQ_A_out2 >= 1
  -timeElastic_LSQ_A_in1 + timeElastic_LSQ_A_out3 >= 1
  -timeElastic_LSQ_A_in2 + timeElastic_LSQ_A_out3 >= 1
  -timeElastic_LSQ_A_in3 + timeElastic_LSQ_A_out3 >= 1
  -timeElastic_LSQ_A_in4 + timeElastic_LSQ_A_out3 >= 1
  -timeElastic_LSQ_A_in5 + timeElastic_LSQ_A_out3 >= 1
  -timeElastic_MC_col_in1 + timeElastic_MC_col_out1 >= 1
  -timeElastic_MC_col_in1 + timeElastic_MC_col_out2 >= 1
  -timeElastic_MC_row_in1 + timeElastic_MC_row_out1 >= 1
  -timeElastic_MC_row_in1 + timeElastic_MC_row_out2 >= 1
Binary
  alpha_phi_n130_flop cst_0_phi_120_flop cst_1_phi_224_flop start_0_forkC_510_flop cst_8_fork_1115_flop forkC_5_cst_02_flop forkC_5_cst_14_flop forkC_5_cst_88_flop forkC_5_phiC_234_flop fork_11_phi_n1336_flop fork_11_phi_n14132_flop branch_7_sink_4215_flop branchC_8_sink_5216_flop load_8_MC_col206_flop load_11_LSQ_A199_flop load_15_MC_row209_flop load_18_LSQ_A200_flop store_0_LSQ_A201_flop store_0_LSQ_A202_flop forkC_0_LSQ_A198_flop branch_1_sink_1212_flop branch_3_sink_2213_flop branch_6_sink_3214_flop branchC_9_sink_6217_flop branch_2_ret_0196_flop ret_0_end_0221_flop LSQ_A_load_1173_flop LSQ_A_load_1884_flop LSQ_A_end_0218_flop MC_col_load_869_flop MC_col_end_0219_flop MC_row_load_1580_flop MC_row_end_0220_flop
End
